objective value:                                   -4
t_n_17                                              1 	(obj:-1)
t_n_281                                             1 	(obj:-1)
t_n_622                                             1 	(obj:-1)
t_n_1484                                            1 	(obj:-1)
